presolving:
(round 1, fast)       195 del vars, 0 del conss, 0 add conss, 0 chg bounds, 0 chg sides, 0 chg coeffs, 0 upgd conss, 0 impls, 388 clqs
(round 2, exhaustive) 195 del vars, 0 del conss, 0 add conss, 0 chg bounds, 0 chg sides, 0 chg coeffs, 388 upgd conss, 0 impls, 388 clqs
   (1.4s) probing: 51/37442 (0.1%) - 0 fixings, 0 aggregations, 0 implications, 0 bound changes
   (1.4s) probing aborted: 50/50 successive totally useless probings
   Deactivated symmetry handling methods, since SCIP was built without symmetry detector (SYM=none).
presolving (3 rounds: 3 fast, 2 medium, 2 exhaustive):
 195 deleted vars, 0 deleted constraints, 0 added constraints, 0 tightened bounds, 0 added holes, 0 changed sides, 0 changed coefficients
 0 implications, 388 cliques
presolved problem has 37635 variables (37442 bin, 0 int, 0 impl, 193 cont) and 37637 constraints
    388 constraints of type <setppc>
  37249 constraints of type <linear>
transformed objective value is always integral (scale: 1)
Presolving Time: 1.49

 time | node  | left  |LP iter|LP it/n|mem/heur|mdpt |vars |cons |rows |cuts |sepa|confs|strbr|  dualbound   | primalbound  |  gap   | compl. 
p 3.4s|     1 |     0 |   780 |     - | vbounds|   0 |  37k|  37k|  37k|   0 |  0 |  16 |   0 | 0.000000e+00 | 3.979500e+04 |    Inf | unknown
  3.8s|     1 |     0 |  1558 |     - |   341M |   0 |  37k|  37k|  37k|   0 |  0 |  16 |   0 | 9.114500e+03 | 3.979500e+04 | 336.61%| unknown
  4.6s|     1 |     0 |  1629 |     - |   354M |   0 |  37k|  37k|  37k| 142 |  1 |  16 |   0 | 9.114500e+03 | 3.979500e+04 | 336.61%| unknown
  5.4s|     1 |     0 |  1630 |     - |   360M |   0 |  37k|  37k|  37k| 143 |  3 |  16 |   0 | 9.114500e+03 | 3.979500e+04 | 336.61%| unknown
L59.3s|     1 |     0 |  8868 |     - |    alns|   0 |  37k|  37k|  37k| 143 |  5 |  39 |   0 | 9.114500e+03 | 3.838000e+04 | 321.09%| unknown
 59.4s|     1 |     0 |  8868 |     - |   372M |   0 |  37k|  37k|  37k| 143 |  5 |  39 |   0 | 9.114500e+03 | 3.838000e+04 | 321.09%| unknown
 60.3s|     1 |     0 |  8912 |     - |   372M |   0 |  37k|  37k|  37k| 147 |  6 |  39 |   0 | 9.123500e+03 | 3.838000e+04 | 320.67%| unknown
 87.5s|     1 |     2 |  8912 |     - |   373M |   0 |  37k|  37k|  37k| 147 |  7 |  40 |  31 | 9.145500e+03 | 3.838000e+04 | 319.66%| unknown
